NAME PortOpt_n10_m4_inst_4
ROWS
 N  OBJ
 E  budget  
 G  return  
 L  uncertain_risk
 L  fixed_risk
COLUMNS
    asset[0]  budget    1
    asset[0]  return    2.2320892239210757e+00
    asset[1]  budget    1
    asset[1]  return    2.3409278894441581e+00
    asset[2]  budget    1
    asset[2]  return    3.5118262870282346e+00
    asset[3]  budget    1
    asset[3]  return    1.9179569770191376e+00
    asset[4]  budget    1
    asset[4]  return    4.0617908651737444e+00
    asset[5]  budget    1
    asset[5]  return    1.3910785641320578e+00
    asset[6]  budget    1
    asset[6]  return    3.1068827012970051e+00
    asset[7]  budget    1
    asset[7]  return    1.4437377434694803e+00
    asset[8]  budget    1
    asset[8]  return    1.9529403758606949e+00
    asset[9]  budget    1
    asset[9]  return    1.0151807746658135e+00
    return_var  OBJ       -1
    return_var  return    -1
    uncertain_risk_var  OBJ       1
    uncertain_risk_var  uncertain_risk  -1
    fixed_risk_var  OBJ       1
    fixed_risk_var  fixed_risk  -1
RHS
    RHS1      budget    1
BOUNDS
QCMATRIX   uncertain_risk
    asset[0]  asset[0]  2.6452904120679166e-01
    asset[0]  asset[1]  1.3197274050011648e-01
    asset[1]  asset[0]  1.3197274050011648e-01
    asset[0]  asset[2]  3.9306395478276468e-02
    asset[2]  asset[0]  3.9306395478276468e-02
    asset[0]  asset[3]  -1.0268517490953236e-02
    asset[3]  asset[0]  -1.0268517490953236e-02
    asset[0]  asset[4]  -4.7055050229442744e-02
    asset[4]  asset[0]  -4.7055050229442744e-02
    asset[0]  asset[5]  -4.5756188596149432e-02
    asset[5]  asset[0]  -4.5756188596149432e-02
    asset[0]  asset[6]  9.3527501343507430e-02
    asset[6]  asset[0]  9.3527501343507430e-02
    asset[0]  asset[7]  -5.7999082848962068e-02
    asset[7]  asset[0]  -5.7999082848962068e-02
    asset[0]  asset[8]  -7.6350932237821842e-02
    asset[8]  asset[0]  -7.6350932237821842e-02
    asset[0]  asset[9]  3.4312001656960098e-04
    asset[9]  asset[0]  3.4312001656960098e-04
    asset[1]  asset[1]  6.7911652587001672e-02
    asset[1]  asset[2]  2.1352169863048651e-02
    asset[2]  asset[1]  2.1352169863048651e-02
    asset[1]  asset[3]  -6.1602242607548411e-03
    asset[3]  asset[1]  -6.1602242607548411e-03
    asset[1]  asset[4]  -2.2664882721612115e-02
    asset[4]  asset[1]  -2.2664882721612115e-02
    asset[1]  asset[5]  -2.2276345628391571e-02
    asset[5]  asset[1]  -2.2276345628391571e-02
    asset[1]  asset[6]  4.6299672831050395e-02
    asset[6]  asset[1]  4.6299672831050395e-02
    asset[1]  asset[7]  -3.5464945866854600e-02
    asset[7]  asset[1]  -3.5464945866854600e-02
    asset[1]  asset[8]  -3.8441329318547074e-02
    asset[8]  asset[1]  -3.8441329318547074e-02
    asset[1]  asset[9]  3.5676991974117683e-04
    asset[9]  asset[1]  3.5676991974117683e-04
    asset[2]  asset[2]  2.5205694405338531e-02
    asset[2]  asset[3]  -1.4077365128660995e-02
    asset[3]  asset[2]  -1.4077365128660995e-02
    asset[2]  asset[4]  -3.1310908572649149e-03
    asset[4]  asset[2]  -3.1310908572649149e-03
    asset[2]  asset[5]  -7.7443802998019163e-04
    asset[5]  asset[2]  -7.7443802998019163e-04
    asset[2]  asset[6]  6.4106385794988948e-03
    asset[6]  asset[2]  6.4106385794988948e-03
    asset[2]  asset[7]  -1.2958288238568632e-02
    asset[7]  asset[2]  -1.2958288238568632e-02
    asset[2]  asset[8]  -3.2294192863838176e-03
    asset[8]  asset[2]  -3.2294192863838176e-03
    asset[2]  asset[9]  6.2619131890676288e-04
    asset[9]  asset[2]  6.2619131890676288e-04
    asset[3]  asset[3]  8.6993980716333810e-02
    asset[3]  asset[4]  -2.3251633561697299e-03
    asset[4]  asset[3]  -2.3251633561697299e-03
    asset[3]  asset[5]  2.2480422567946762e-02
    asset[5]  asset[3]  2.2480422567946762e-02
    asset[3]  asset[6]  -3.7144915848284540e-02
    asset[6]  asset[3]  -3.7144915848284540e-02
    asset[3]  asset[7]  -3.1121384301817292e-04
    asset[7]  asset[3]  -3.1121384301817292e-04
    asset[3]  asset[8]  -3.0458484950375685e-02
    asset[8]  asset[3]  -3.0458484950375685e-02
    asset[3]  asset[9]  -6.0207678050595249e-03
    asset[9]  asset[3]  -6.0207678050595249e-03
    asset[4]  asset[4]  9.2877866109474308e-03
    asset[4]  asset[5]  8.8182290184598972e-03
    asset[5]  asset[4]  8.8182290184598972e-03
    asset[4]  asset[6]  -1.7236017367851280e-02
    asset[6]  asset[4]  -1.7236017367851280e-02
    asset[4]  asset[7]  8.0738297552579996e-03
    asset[7]  asset[4]  8.0738297552579996e-03
    asset[4]  asset[8]  1.5536902328481570e-02
    asset[8]  asset[4]  1.5536902328481570e-02
    asset[4]  asset[9]  2.0623525870264490e-04
    asset[9]  asset[4]  2.0623525870264490e-04
    asset[5]  asset[5]  1.7507595994726760e-02
    asset[5]  asset[6]  -3.0544181860599165e-02
    asset[6]  asset[5]  -3.0544181860599165e-02
    asset[5]  asset[7]  7.0587436106809859e-03
    asset[7]  asset[5]  7.0587436106809859e-03
    asset[5]  asset[8]  6.9089977355786883e-03
    asset[8]  asset[5]  6.9089977355786883e-03
    asset[5]  asset[9]  -1.6491464955455701e-03
    asset[9]  asset[5]  -1.6491464955455701e-03
    asset[6]  asset[6]  5.4790292846579360e-02
    asset[6]  asset[7]  -1.7345613809343303e-02
    asset[7]  asset[6]  -1.7345613809343303e-02
    asset[6]  asset[8]  -1.6556765509651888e-02
    asset[8]  asset[6]  -1.6556765509651888e-02
    asset[6]  asset[9]  2.6805043236577614e-03
    asset[9]  asset[6]  2.6805043236577614e-03
    asset[7]  asset[7]  3.3706959576019525e-02
    asset[7]  asset[8]  2.0206343860161648e-02
    asset[8]  asset[7]  2.0206343860161648e-02
    asset[7]  asset[9]  -2.6808035287902984e-04
    asset[9]  asset[7]  -2.6808035287902984e-04
    asset[8]  asset[8]  3.6119642802756861e-02
    asset[8]  asset[9]  2.0876526043554500e-03
    asset[9]  asset[8]  2.0876526043554500e-03
    asset[9]  asset[9]  4.3248789485163545e-04
QCMATRIX   fixed_risk
    asset[0]  asset[0]  2.6879846792817103e-02
    asset[1]  asset[1]  6.4975565996451354e-03
    asset[2]  asset[2]  2.7876782290658618e-03
    asset[3]  asset[3]  8.1897521497581675e-03
    asset[4]  asset[4]  8.7029505294319409e-04
    asset[5]  asset[5]  1.7972255792362260e-03
    asset[6]  asset[6]  5.6470399467077525e-03
    asset[7]  asset[7]  3.0801078490655118e-03
    asset[8]  asset[8]  3.7741687451338609e-03
    asset[9]  asset[9]  4.5325951049100046e-05
ENDATA
